(set-logic QF_SLIA)
(declare-fun var0 () String)
(assert (not (str.in_re var0 (re.++ ((_ re.loop 14 941) (re.++ (re.union (str.to_re "Ln") (re.union (str.to_re "5_Y") (re.union (str.to_re "i}p") (str.to_re "W")))) (re.++ (re.union (str.to_re "~1") (re.union (str.to_re "c`}") (re.union (str.to_re "[X") (str.to_re "E")))) (re.++ (re.union (str.to_re "=I") (re.union (str.to_re "jC") (re.union (str.to_re "|0") (str.to_re "Z`")))) (re.union (str.to_re "S:D") (re.union (str.to_re "\u0022") (re.union (str.to_re "V") (str.to_re "e[E")))))))) (re.++ ((_ re.loop 5 230) (re.++ (re.union (str.to_re "?J") (re.union (str.to_re "l") (re.union (str.to_re "-") (str.to_re ">[")))) (re.++ (re.union (str.to_re "K*") (re.union (str.to_re "4&") (re.union (str.to_re "dFN") (str.to_re "o")))) (re.++ (re.union (str.to_re "C") (re.union (str.to_re "B") (re.union (str.to_re "{") (str.to_re "GZ+")))) (re.union (str.to_re "f") (re.union (str.to_re "&") (re.union (str.to_re "Wha") (str.to_re "w")))))))) (re.++ ((_ re.loop 18 169) (re.++ (re.union (str.to_re "cy'") (re.union (str.to_re "$L") (re.union (str.to_re "PGw") (str.to_re "D+7")))) (re.++ (re.union (str.to_re "`j=") (re.union (str.to_re "Y") (re.union (str.to_re ";DC") (str.to_re "w")))) (re.++ (re.union (str.to_re "Lh3") (re.union (str.to_re "@e") (re.union (str.to_re "|") (str.to_re "ZHe")))) (re.union (str.to_re "T") (re.union (str.to_re ".5-") (re.union (str.to_re "HS$") (str.to_re "z.r")))))))) ((_ re.loop 13 932) (re.++ (re.union (str.to_re "J6") (re.union (str.to_re "{") (re.union (str.to_re "w") (str.to_re "0B")))) (re.++ (re.union (str.to_re "$I") (re.union (str.to_re "Z:") (re.union (str.to_re "?:") (str.to_re "]B")))) (re.++ (re.union (str.to_re "pp") (re.union (str.to_re "]") (re.union (str.to_re "')u") (str.to_re "\u00225")))) (re.union (str.to_re "o|%") (re.union (str.to_re "If") (re.union (str.to_re "!") (str.to_re "P_"))))))))))))))
(assert (not (str.in_re var0 (re.++ ((_ re.loop 16 343) (re.++ (re.union (str.to_re "~C!") (re.union (str.to_re "0s") (re.union (str.to_re "H") (str.to_re "y")))) (re.++ (re.union (str.to_re "RE") (re.union (str.to_re "N") (re.union (str.to_re "62") (str.to_re "L")))) (re.++ (re.union (str.to_re "y") (re.union (str.to_re "+u;") (re.union (str.to_re ":v") (str.to_re "[~R")))) (re.union (str.to_re "E") (re.union (str.to_re "R8") (re.union (str.to_re "T:^") (str.to_re "U")))))))) (re.++ ((_ re.loop 17 69) (re.++ (re.union (str.to_re "ab") (re.union (str.to_re "s") (re.union (str.to_re "!^") (str.to_re "z")))) (re.++ (re.union (str.to_re "`") (re.union (str.to_re "s0A") (re.union (str.to_re "vx") (str.to_re "~$")))) (re.++ (re.union (str.to_re "F") (re.union (str.to_re "4") (re.union (str.to_re "?\u0022") (str.to_re "c")))) (re.union (str.to_re "$y") (re.union (str.to_re "'5i") (re.union (str.to_re ".~>") (str.to_re "*")))))))) (re.++ ((_ re.loop 12 944) (re.++ (re.union (str.to_re "Q>Z") (re.union (str.to_re "C") (re.union (str.to_re "Lx") (str.to_re "L")))) (re.++ (re.union (str.to_re "7N~") (re.union (str.to_re "#") (re.union (str.to_re "vi") (str.to_re "a<")))) (re.++ (re.union (str.to_re ">_") (re.union (str.to_re "=") (re.union (str.to_re ".K") (str.to_re "H0")))) (re.union (str.to_re ">G&") (re.union (str.to_re "R+") (re.union (str.to_re "3t") (str.to_re "{'_")))))))) ((_ re.loop 18 580) (re.++ (re.union (str.to_re "U{A") (re.union (str.to_re "5A7") (re.union (str.to_re "]O") (str.to_re "%")))) (re.++ (re.union (str.to_re "?Y") (re.union (str.to_re "+y") (re.union (str.to_re "s6S") (str.to_re "BF")))) (re.++ (re.union (str.to_re "\\1") (re.union (str.to_re "d/'") (re.union (str.to_re "ff]") (str.to_re ";V")))) (re.union (str.to_re "<zZ") (re.union (str.to_re "r`") (re.union (str.to_re "=3") (str.to_re "W5S"))))))))))))))
(assert (not (str.in_re var0 (re.++ (re.* re.allchar) (re.++ (re.union (str.to_re "<") (re.union (str.to_re ">") (re.union (str.to_re "'") (re.union (str.to_re "\u0022") (str.to_re "&"))))) (re.* re.allchar))))))
(assert (<= 50 (str.len var0)))
(check-sat)
(get-model)
